300
125 125
1 87 552
2 87 404
3 87 191
4 86 636
5 86 629
6 85 425
7 85 761
8 85 884
9 84 239
10 84 162
11 84 493
12 84 897
13 84 482
14 83 174
15 83 925
16 83 214
17 82 63
18 82 775
19 82 846
20 81 232
21 81 155
22 81 820
23 81 52
24 81 644
25 81 879
26 80 365
27 80 758
28 80 768
29 80 422
30 80 589
31 80 195
32 80 290
33 79 387
34 79 241
35 79 602
36 79 444
37 79 690
38 79 337
39 79 860
40 78 257
41 78 35
42 78 402
43 78 587
44 78 839
45 78 552
46 78 422
47 77 940
48 77 198
49 77 655
50 77 384
51 77 399
52 77 220
53 76 187
54 76 85
55 76 550
56 76 953
57 76 926
58 76 650
59 76 606
60 76 575
61 75 31
62 75 826
63 74 224
64 74 697
65 74 854
66 74 606
67 73 264
68 73 199
69 73 878
70 72 246
71 72 675
72 72 246
73 72 639
74 71 546
75 71 68
76 71 279
77 71 835
78 71 297
79 71 347
80 70 24
81 70 639
82 70 597
83 70 583
84 70 33
85 69 49
86 69 787
87 69 323
88 69 166
89 69 755
90 69 777
91 69 373
92 68 320
93 68 184
94 67 748
95 67 729
96 67 665
97 67 782
98 66 314
99 66 21
100 66 618
101 66 330
102 66 428
103 65 258
104 65 550
105 64 332
106 64 727
107 64 574
108 64 580
109 64 859
110 63 803
111 63 387
112 63 981
113 62 566
114 62 857
115 62 539
116 61 94
117 61 572
118 61 335
119 61 806
120 61 551
121 60 457
122 60 861
123 60 518
124 60 296
125 59 808
126 59 993
127 59 666
128 59 23
129 59 836
130 59 297
131 59 599
132 59 777
133 58 257
134 58 665
135 58 736
136 58 798
137 58 680
138 58 474
139 58 328
140 58 107
141 58 497
142 57 491
143 57 94
144 57 675
145 57 139
146 57 521
147 57 213
148 56 868
149 56 938
150 56 643
151 55 26
152 55 709
153 55 909
154 55 182
155 54 13
156 54 325
157 54 856
158 53 432
159 53 333
160 53 721
161 53 784
162 53 491
163 53 611
164 52 914
165 51 163
166 51 417
167 51 481
168 51 465
169 50 125
170 50 734
171 50 518
172 50 419
173 50 379
174 50 803
175 49 216
176 48 585
177 48 178
178 48 751
179 48 666
180 48 680
181 48 588
182 48 497
183 48 504
184 48 48
185 47 710
186 46 471
187 46 262
188 46 6
189 46 338
190 46 244
191 46 830
192 46 53
193 45 748
194 45 56
195 45 720
196 45 181
197 45 140
198 45 63
199 44 623
200 44 31
201 44 704
202 44 925
203 44 677
204 43 443
205 43 67
206 42 658
207 42 432
208 42 467
209 42 217
210 42 407
211 41 586
212 41 451
213 41 932
214 41 572
215 41 408
216 41 526
217 41 118
218 41 404
219 40 365
220 40 905
221 40 243
222 39 156
223 39 408
224 38 869
225 38 251
226 38 201
227 38 292
228 38 129
229 38 32
230 37 771
231 37 273
232 37 964
233 37 380
234 37 675
235 37 863
236 37 373
237 37 345
238 36 200
239 36 254
240 36 962
241 36 620
242 36 688
243 35 221
244 35 88
245 35 904
246 35 6
247 34 689
248 34 665
249 34 119
250 34 554
251 34 13
252 34 406
253 34 740
254 33 197
255 33 481
256 33 313
257 33 606
258 33 297
259 32 541
260 32 803
261 32 387
262 31 369
263 31 319
264 31 460
265 31 120
266 31 320
267 31 771
268 31 688
269 30 614
270 30 135
271 30 318
272 30 474
273 30 800
274 30 276
275 29 487
276 29 659
277 29 570
278 29 225
279 29 231
280 29 519
281 29 338
282 28 416
283 28 120
284 28 141
285 28 859
286 28 624
287 27 816
288 27 730
289 27 62
290 27 296
291 27 157
292 27 729
293 26 810
294 26 469
295 26 702
296 26 673
297 26 608
298 25 547
299 25 374
300 25 139
